Rodando pra 1h

Optimize a model with 160129 rows, 239510 columns and 8769089 nonzeros
Coefficient statistics:
  Matrix range    [1e+00, 1e+04]
  Objective range [2e-01, 2e-01]
  Bounds range    [1e+00, 1e+04]
  RHS range       [1e+00, 1e+04]
Presolve removed 3 rows and 3 columns (presolve time = 7s) ...
Presolve removed 6 rows and 6 columns (presolve time = 10s) ...
Presolve removed 6 rows and 6 columns (presolve time = 16s) ...
Presolve removed 6 rows and 6 columns (presolve time = 21s) ...
Presolve removed 6 rows and 6 columns (presolve time = 25s) ...
Presolve removed 6 rows and 6 columns (presolve time = 31s) ...
Presolve removed 6 rows and 6 columns (presolve time = 35s) ...
Presolve removed 6 rows and 6 columns (presolve time = 41s) ...
Presolve removed 6 rows and 6 columns (presolve time = 46s) ...
Presolve removed 6 rows and 6 columns (presolve time = 50s) ...
Presolve removed 6 rows and 6 columns (presolve time = 55s) ...
Presolve removed 6 rows and 6 columns (presolve time = 61s) ...
Presolve removed 6 rows and 6 columns (presolve time = 67s) ...
Presolve removed 6 rows and 6 columns
Presolve time: 67.18s
Presolved: 160123 rows, 239504 columns, 8769047 nonzeros
Variable types: 159600 continuous, 79904 integer (79900 binary)
Optimize a model with 160123 rows, 239504 columns and 8769047 nonzeros
Coefficient statistics:
  Matrix range    [1e+00, 1e+04]
  Objective range [2e-01, 2e-01]
  Bounds range    [1e+00, 1e+04]
  RHS range       [1e+00, 2e+04]
Presolved: 160123 rows, 239504 columns, 8769047 nonzeros


Root simplex log...

Iteration    Objective       Primal Inf.    Dual Inf.      Time
       0    0.0000000e+00   1.214779e+03   0.000000e+00     80s
     893    0.0000000e+00   0.000000e+00   0.000000e+00     81s

Root relaxation: objective 0.000000e+00, 893 iterations, 4.22 seconds

    Nodes    |    Current Node    |     Objective Bounds      |     Work
 Expl Unexpl |  Obj  Depth IntInf | Incumbent    BestBd   Gap | It/Node Time

     0     0    0.00000    0  425          -    0.00000      -     - 1090s
     0     0          -    0               -    0.00000      -     - 3600s

Cutting planes:
  Flow cover: 399

Explored 0 nodes (391912 simplex iterations) in 3600.01 seconds
Thread count was 1 (of 4 available processors)

Time limit reached
Best objective -, best bound 0.000000000000e+00, gap -
Tempo: 3596.34 segundos

Error code = 10004
Var::get
